NAME : swiss42-C-5-1-b.1469.tour
COMMENT : Length = 1469
COMMENT : Found by LKH-3 [Keld Helsgaun] Tue Jul 30 13:14:05 2024
TYPE : TOUR
DIMENSION : 42
TOUR_SECTION
1
38
18
32
37
36
21
34
35
39
23
40
25
41
22
10
24
42
9
30
31
33
29
28
3
4
5
27
6
7
2
8
16
17
15
20
14
19
13
12
26
11
-1
EOF
